c p9@v1 --> 25
c @top --> 28
c p9@v0 --> 24
c p1@v2 --> 23
c p1@v1 --> 22
c p1@v0 --> 21
c p5@v1 --> 19
c p6@v2 --> 17
c p6@v0 --> 15
c p2 --> 14
c p10@v0 --> 1
c p5@v2 --> 20
c p5@v0 --> 18
c p4@v2 --> 12
c p10@v2 --> 3
c p10@v3 --> 4
c p0 --> 27
c p7@v2 --> 8
c p7@v0 --> 6
c p10@v1 --> 2
c p7@v1 --> 7
c p9@v2 --> 26
c p11 --> 9
c p4@v0 --> 10
c p6@v1 --> 16
c p8 --> 5
c p3 --> 13
c p4@v1 --> 11
p cnf 28 57
-10 9 -20 0
-10 9 -23 -13 -18 0
-10 -22 9 -13 -18 0
-15 -22 9 -11 -13 0
-10 13 -22 -9 -18 0
-6 9 -23 -13 -12 0
13 -22 -6 -9 -12 0
-10 13 -9 -23 -18 0
-15 13 -9 -11 -23 0
-9 -12 -7 0
13 -14 0
9 -8 -12 0
-10 14 -9 -21 -18 0
-10 -14 9 -21 -18 0
-6 14 -9 -21 -12 0
-15 13 -22 -9 -11 0
-15 9 -11 -23 -13 0
-16 -9 -11 0
-10 -9 -19 0
-22 -6 9 -13 -12 0
13 -6 -9 -23 -12 0
-15 14 -9 -11 -21 0
-6 -14 9 -21 -12 0
-17 9 -11 0
-15 -14 9 -11 -21 0
1 2 3 4 0
-1 -2 0
-1 -3 0
-1 -4 0
-2 -3 0
-2 -4 0
-3 -4 0
6 7 8 0
-6 -7 0
-6 -8 0
-7 -8 0
10 11 12 0
-10 -11 0
-10 -12 0
-11 -12 0
15 16 17 0
-15 -16 0
-15 -17 0
-16 -17 0
18 19 20 0
-18 -19 0
-18 -20 0
-19 -20 0
21 22 23 0
-21 -22 0
-21 -23 0
-22 -23 0
24 25 26 0
-24 -25 0
-24 -26 0
-25 -26 0
28 -28 0
